c Maximum weighted clique instances generated from exactcolors.
c cutoff: 11545611.
c A clique of value > scalef (11545611) defines an improving stable sets for coloring.
p edge 31 0
n 1 11545611
n 2 11545611
n 3 11545611
n 4 11545611
n 5 11545611
n 6 11545611
n 7 11545611
n 8 11545611
n 9 11545611
n 10 11545611
n 11 11545611
n 12 11545611
n 13 11545611
n 14 11545611
n 15 11545611
n 16 11545611
n 17 11545611
n 18 11545611
n 19 11545611
n 20 11545611
n 21 11545611
n 22 11545611
n 23 11545611
n 24 11545611
n 25 11545611
n 26 11545611
n 27 11545611
n 28 11545611
n 29 11545611
n 30 11545611
n 31 11545611
